703, 0, 0, 47, 3
704, 0, 1, 51, 0
705, 0, 2, 43, 1
706, 0, 3, 61, 2
707, 1, 0, 99, 2
708, 1, 1, 74, 0
709, 1, 2, 36, 3
710, 1, 3, 85, 1
711, 2, 0, 84, 1
712, 2, 1, 72, 0
713, 2, 2, 74, 3
714, 2, 3, 81, 2
715, 3, 0, 57, 2
716, 3, 1, 68, 0
717, 3, 2, 33, 3
718, 3, 3, 47, 1
